
Gurobi 10.0.1 (linux64) logging started Sun May 28 13:32:00 2023

Set parameter LogFile to value "logFiles/N-1L-B/N-1L-13U-10F-23V-120D/basic-05-28-2023, 13-31-H70-P50-O15.log"
Gurobi Optimizer version 10.0.1 build v10.0.1rc0 (linux64)

CPU model: Intel(R) Xeon(R) Gold 5115 CPU @ 2.40GHz, instruction set [SSE2|AVX|AVX2|AVX512]
Thread count: 20 physical cores, 40 logical processors, using up to 20 threads

Optimize a model with 59635 rows, 924008 columns and 4323882 nonzeros
Model fingerprint: 0xdb51f496
Variable types: 216019 continuous, 707989 integer (707989 binary)
Coefficient statistics:
  Matrix range     [1e+00, 2e+05]
  Objective range  [4e+01, 3e+07]
  Bounds range     [1e+00, 1e+00]
  RHS range        [1e+00, 2e+06]

Loaded user MIP start with objective 1.27833e+09

Presolve removed 26985 rows and 17082 columns (presolve time = 5s) ...
Presolve removed 26985 rows and 17082 columns (presolve time = 10s) ...
Presolve removed 26994 rows and 17299 columns (presolve time = 15s) ...
Presolve removed 26957 rows and 17262 columns
Presolve time: 19.39s
Presolved: 32678 rows, 906746 columns, 3870617 nonzeros
Variable types: 211351 continuous, 695395 integer (695395 binary)
Deterministic concurrent LP optimizer: primal simplex, dual simplex, and barrier
Showing barrier log only...

Root barrier log...

Ordering time: 1.13s

Barrier statistics:
 AA' NZ     : 2.110e+06
 Factor NZ  : 6.829e+06 (roughly 400 MB of memory)
 Factor Ops : 9.366e+09 (less than 1 second per iteration)
 Threads    : 18

                  Objective                Residual
Iter       Primal          Dual         Primal    Dual     Compl     Time
   0  -1.96596542e+16  6.72819202e+13  1.17e+09 4.77e+06  1.30e+12    27s
   1  -4.88327006e+15  7.51051057e+13  2.92e+08 3.01e+06  3.32e+11    27s
   2  -4.73456109e+14  5.85846204e+13  2.84e+07 3.94e+05  3.27e+10    28s
   3  -2.01737470e+13  3.11436891e+13  1.21e+06 2.72e-08  1.41e+09    29s
   4  -8.38918610e+12  1.42655496e+13  5.04e+05 2.24e-08  5.91e+08    29s
   5  -5.79337784e+12  1.33421798e+13  3.48e+05 2.24e-08  4.11e+08    29s
   6  -2.71895114e+12  1.16400878e+13  1.63e+05 1.86e-08  1.95e+08    30s
   7  -1.39952402e+12  1.12930617e+13  8.40e+04 1.86e-08  1.03e+08    30s
   8  -1.11637080e+12  1.03637535e+13  6.70e+04 1.62e-08  8.20e+07    31s
   9  -6.99658722e+11  8.62966622e+12  4.20e+04 1.85e-08  5.08e+07    31s
  10  -6.59783174e+11  8.24358654e+12  3.96e+04 1.62e-08  4.75e+07    31s
  11  -2.82550633e+11  6.63981626e+12  1.70e+04 1.68e-08  2.12e+07    32s
  12  -6.88088817e+10  3.81305111e+12  4.23e+03 2.14e-08  5.95e+06    32s
  13  -3.90562108e+10  2.08583451e+12  2.45e+03 2.37e-08  3.11e+06    33s
  14  -1.87359297e+10  1.40925075e+12  1.23e+03 2.25e-08  1.69e+06    33s
  15  -1.32004870e+10  8.67473088e+11  9.01e+02 2.42e-08  1.08e+06    34s
  16  -7.89830395e+08  4.40967115e+11  1.59e+02 2.56e-08  3.35e+05    34s
  17  -4.28589176e+08  3.50402738e+11  1.37e+02 4.28e-08  2.69e+05    34s
  18   5.52766003e+08  1.24958127e+11  7.83e+01 4.65e-07  1.07e+05    35s
  19   9.55923284e+08  1.03257145e+11  5.43e+01 6.03e-07  8.27e+04    35s
  20   1.45540672e+09  7.99282359e+10  2.48e+01 4.44e-07  5.53e+04    35s
  21   1.56035472e+09  6.51804954e+10  1.88e+01 5.48e-07  4.44e+04    36s
  22   1.61997858e+09  5.80563162e+10  1.55e+01 6.19e-07  3.90e+04    36s
  23   1.68545463e+09  4.46282073e+10  1.20e+01 5.05e-07  3.01e+04    37s
  24   1.73067080e+09  3.28686826e+10  9.74e+00 5.46e-07  2.27e+04    37s
  25   1.78406867e+09  2.41297387e+10  7.28e+00 3.69e-07  1.67e+04    38s
  26   1.83514792e+09  1.97124267e+10  4.88e+00 6.15e-07  1.29e+04    38s
  27   1.87564734e+09  1.78032543e+10  3.40e+00 3.68e-07  1.09e+04    39s
  28   1.89720826e+09  1.53970292e+10  2.68e+00 4.63e-07  9.16e+03    39s
  29   1.91224909e+09  1.24815730e+10  2.26e+00 4.46e-07  7.27e+03    40s
  30   1.93642384e+09  1.15382269e+10  1.87e+00 3.12e-07  6.43e+03    40s
  31   1.95945277e+09  9.50423826e+09  1.52e+00 3.49e-07  4.99e+03    41s
  32   1.99501708e+09  8.06633494e+09  1.12e+00 5.70e-07  3.89e+03    41s
  33   2.04659082e+09  6.46268254e+09  6.58e-01 3.34e-07  2.70e+03    42s
  34   2.07297437e+09  5.16890036e+09  4.94e-01 4.56e-07  1.87e+03    42s
  35   2.08861580e+09  4.89744085e+09  4.08e-01 3.42e-07  1.67e+03    43s
  36   2.09351320e+09  4.02323150e+09  3.82e-01 3.40e-07  1.16e+03    43s
  37   2.11424203e+09  3.15582746e+09  2.76e-01 4.45e-07  6.24e+02    44s
  38   2.15659805e+09  2.70685771e+09  1.37e-01 7.50e-07  3.22e+02    44s
  39   2.17354597e+09  2.59551334e+09  1.16e-01 9.75e-07  2.47e+02    45s
  40   2.18241796e+09  2.56348674e+09  1.07e-01 7.23e-07  2.23e+02    45s
  41   2.18434583e+09  2.51251559e+09  1.05e-01 1.02e-06  1.93e+02    46s
  42   2.18777757e+09  2.49790128e+09  1.01e-01 1.03e-06  1.83e+02    46s
  43   2.18922319e+09  2.49283405e+09  9.88e-02 8.93e-07  1.79e+02    47s
  44   2.19031192e+09  2.48646113e+09  9.75e-02 1.27e-06  1.75e+02    47s
  45   2.19243394e+09  2.47988630e+09  9.49e-02 8.43e-07  1.69e+02    47s
  46   2.19649288e+09  2.46074469e+09  9.00e-02 8.65e-07  1.56e+02    48s
  47   2.20110367e+09  2.45147534e+09  8.48e-02 9.22e-07  1.47e+02    48s
  48   2.20453082e+09  2.44091652e+09  8.06e-02 9.88e-07  1.39e+02    49s
  49   2.20831407e+09  2.41623116e+09  7.64e-02 9.81e-07  1.23e+02    50s
  50   2.21149227e+09  2.40918520e+09  7.25e-02 9.00e-07  1.16e+02    50s
  51   2.21608728e+09  2.39941372e+09  6.80e-02 9.61e-07  1.08e+02    51s
  52   2.21963816e+09  2.38738643e+09  6.40e-02 9.51e-07  9.88e+01    51s
  53   2.22373730e+09  2.37874079e+09  5.95e-02 1.26e-06  9.12e+01    52s
  54   2.22541532e+09  2.37301827e+09  5.78e-02 8.05e-07  8.69e+01    52s
  55   2.22765747e+09  2.37132216e+09  5.52e-02 8.22e-07  8.44e+01    53s
  56   2.23037953e+09  2.36527040e+09  5.20e-02 5.61e-07  7.92e+01    53s
  57   2.23349763e+09  2.35645706e+09  4.84e-02 6.96e-07  7.22e+01    54s
  58   2.23500253e+09  2.35145204e+09  4.70e-02 7.11e-07  6.84e+01    54s
  59   2.23713111e+09  2.34348252e+09  4.46e-02 8.76e-07  6.26e+01    55s
  60   2.23999217e+09  2.33942176e+09  4.13e-02 7.45e-07  5.85e+01    55s
  61   2.24248631e+09  2.33282644e+09  3.86e-02 8.76e-07  5.31e+01    56s
  62   2.24633037e+09  2.32982420e+09  3.41e-02 6.58e-07  4.90e+01    56s
  63   2.24817930e+09  2.32352510e+09  3.23e-02 7.30e-07  4.42e+01    57s
  64   2.25034526e+09  2.32184502e+09  2.99e-02 6.18e-07  4.19e+01    57s
  65   2.25043255e+09  2.32048978e+09  2.98e-02 6.47e-07  4.11e+01    58s
  66   2.25311090e+09  2.31689721e+09  2.72e-02 4.32e-07  3.74e+01    58s
  67   2.25802173e+09  2.31244137e+09  2.20e-02 5.69e-07  3.18e+01    59s
  68   2.26072462e+09  2.30847668e+09  1.95e-02 5.53e-07  2.78e+01    59s
  69   2.26250287e+09  2.30605094e+09  1.78e-02 4.31e-07  2.54e+01    60s
  70   2.26338521e+09  2.30535627e+09  1.70e-02 7.12e-07  2.44e+01    60s
  71   2.26452726e+09  2.30424452e+09  1.60e-02 5.24e-07  2.31e+01    61s
  72   2.26558813e+09  2.30347387e+09  1.50e-02 5.31e-07  2.20e+01    61s
  73   2.26866936e+09  2.30093305e+09  1.25e-02 5.30e-07  1.87e+01    62s
  74   2.27000799e+09  2.30050074e+09  1.15e-02 6.10e-07  1.77e+01    62s
  75   2.27087223e+09  2.29800693e+09  1.09e-02 5.62e-07  1.57e+01    63s
  76   2.27358934e+09  2.29689923e+09  8.82e-03 4.64e-07  1.35e+01    64s
  77   2.27500382e+09  2.29541561e+09  7.95e-03 5.14e-07  1.18e+01    64s
  78   2.27691612e+09  2.29415585e+09  6.73e-03 5.44e-07  9.99e+00    65s
  79   2.27791057e+09  2.29295824e+09  6.09e-03 7.15e-07  8.73e+00    65s
  80   2.27968727e+09  2.29239256e+09  4.99e-03 6.72e-07  7.36e+00    66s
  81   2.28087657e+09  2.29120831e+09  4.25e-03 6.93e-07  6.00e+00    67s
  82   2.28231838e+09  2.29070154e+09  3.36e-03 6.77e-07  4.86e+00    67s
  83   2.28320693e+09  2.28995638e+09  2.80e-03 4.30e-07  3.92e+00    68s
  84   2.28408125e+09  2.28965756e+09  2.29e-03 4.30e-07  3.24e+00    68s
  85   2.28476335e+09  2.28940655e+09  1.85e-03 4.40e-07  2.69e+00    69s
  86   2.28526347e+09  2.28913027e+09  1.52e-03 4.59e-07  2.24e+00    70s
  87   2.28551363e+09  2.28883885e+09  1.36e-03 5.36e-07  1.93e+00    70s
  88   2.28627307e+09  2.28854518e+09  8.84e-04 4.95e-07  1.31e+00    71s
  89   2.28665856e+09  2.28843060e+09  6.44e-04 6.70e-07  1.02e+00    72s
  90   2.28688399e+09  2.28826943e+09  5.08e-04 5.65e-07  7.99e-01    72s
  91   2.28694190e+09  2.28820915e+09  4.74e-04 6.20e-07  7.31e-01    73s
  92   2.28714715e+09  2.28814059e+09  3.52e-04 4.51e-07  5.72e-01    74s
  93   2.28732711e+09  2.28793508e+09  2.47e-04 5.25e-07  3.52e-01    74s
  94   2.28745103e+09  2.28788201e+09  1.74e-04 3.91e-07  2.50e-01    75s
  95   2.28756082e+09  2.28777815e+09  1.07e-04 5.35e-07  1.28e-01    76s
  96   2.28758602e+09  2.28777391e+09  9.29e-05 5.10e-07  1.10e-01    76s
  97   2.28759858e+09  2.28776975e+09  8.56e-05 6.84e-07  1.01e-01    77s
  98   2.28761279e+09  2.28776799e+09  7.70e-05 5.66e-07  9.11e-02    77s
  99   2.28765166e+09  2.28776698e+09  5.44e-05 5.49e-07  6.75e-02    77s
 100   2.28766921e+09  2.28776457e+09  4.43e-05 5.02e-07  5.58e-02    78s
 101   2.28771057e+09  2.28775873e+09  2.06e-05 4.74e-07  2.80e-02    78s
 102   2.28773655e+09  2.28775257e+09  5.93e-06 6.21e-07  9.27e-03    79s
 103   2.28773822e+09  2.28775053e+09  5.00e-06 3.43e-07  7.15e-03    79s
 104   2.28774269e+09  2.28774869e+09  2.66e-06 4.20e-07  3.50e-03    79s
 105   2.28774674e+09  2.28774768e+09  1.12e-06 4.90e-07  5.47e-04    79s
 106   2.28774743e+09  2.28774750e+09  2.40e-07 5.91e-07  3.91e-05    80s
 107   2.28774747e+09  2.28774747e+09  9.91e-08 6.77e-07  6.92e-07    80s
 108   2.28774747e+09  2.28774747e+09  4.63e-09 5.56e-07  6.42e-11    81s

Barrier solved model in 108 iterations and 80.69 seconds (55.01 work units)
Optimal objective 2.28774747e+09


Root crossover log...

   28312 DPushes remaining with DInf 5.4011471e-06                81s
       0 DPushes remaining with DInf 0.0000000e+00                82s

    1323 PPushes remaining with PInf 0.0000000e+00                82s
      13 PPushes remaining with PInf 1.2256442e-01                82s

  Push phase complete: Pinf 1.2256442e-01, Dinf 2.9416724e-01     82s


Root simplex log...

Iteration    Objective       Primal Inf.    Dual Inf.      Time
   29533    2.2877475e+09   1.448680e+01   0.000000e+00     82s
   29543    2.2877475e+09   0.000000e+00   0.000000e+00     82s
Concurrent spin time: 0.01s

Solved with barrier
   29594    2.2877475e+09   0.000000e+00   0.000000e+00     83s
Extra simplex iterations after uncrush: 51

Root relaxation: objective 2.287747e+09, 29594 iterations, 61.75 seconds (38.10 work units)

    Nodes    |    Current Node    |     Objective Bounds      |     Work
 Expl Unexpl |  Obj  Depth IntInf | Incumbent    BestBd   Gap | It/Node Time

     0     0 2.2877e+09    0  273 1.2783e+09 2.2877e+09  79.0%     -   86s
     0     0 2.2875e+09    0  248 1.2783e+09 2.2875e+09  78.9%     -  149s
H    0     0                    2.276411e+09 2.2875e+09  0.49%     -  282s

Cutting planes:
  Cover: 1
  Implied bound: 16
  Clique: 1
  MIR: 17
  Flow cover: 7
  Network: 4
  RLT: 22
  Relax-and-lift: 8

Explored 1 nodes (42115 simplex iterations) in 282.48 seconds (263.08 work units)
Thread count was 20 (of 40 available processors)

Solution count 2: 2.27641e+09 1.27833e+09 

Optimal solution found (tolerance 1.00e-02)
Best objective 2.276411381851e+09, best bound 2.287489499662e+09, gap 0.4866%
Gurobi Optimizer version 10.0.1 build v10.0.1rc0 (linux64)

CPU model: Intel(R) Xeon(R) Gold 5115 CPU @ 2.40GHz, instruction set [SSE2|AVX|AVX2|AVX512]
Thread count: 20 physical cores, 40 logical processors, using up to 20 threads

Optimize a model with 66458 rows, 939552 columns and 4130324 nonzeros
Model fingerprint: 0x65043633
Variable types: 1864 continuous, 937688 integer (937688 binary)
Coefficient statistics:
  Matrix range     [1e+00, 2e+05]
  Objective range  [4e+01, 3e+07]
  Bounds range     [1e+00, 3e+05]
  RHS range        [1e+00, 2e+06]

User MIP start did not produce a new incumbent solution
User MIP start violates constraint flow[RIV,RIV-M,92] by 1.000000000

Presolve removed 62549 rows and 892366 columns
Presolve time: 1.97s
Presolved: 3909 rows, 47186 columns, 158314 nonzeros
Variable types: 824 continuous, 46362 integer (46362 binary)
Found heuristic solution: objective 1.196585e+09
Deterministic concurrent LP optimizer: primal and dual simplex
Showing first log only...

Concurrent spin time: 0.00s

Solved with primal simplex
Extra simplex iterations after uncrush: 406

Root relaxation: objective 2.050485e+09, 30655 iterations, 0.77 seconds (0.81 work units)
Another try with MIP start

    Nodes    |    Current Node    |     Objective Bounds      |     Work
 Expl Unexpl |  Obj  Depth IntInf | Incumbent    BestBd   Gap | It/Node Time

H    0     0                    2.046989e+09 2.0505e+09  0.17%     -    5s
     0     0 2.0505e+09    0   98 2.0470e+09 2.0505e+09  0.17%     -    5s

Explored 1 nodes (31635 simplex iterations) in 5.10 seconds (3.79 work units)
Thread count was 20 (of 40 available processors)

Solution count 2: 2.04699e+09 1.19659e+09 

Optimal solution found (tolerance 1.00e-02)
Best objective 2.046988885880e+09, best bound 2.050485296679e+09, gap 0.1708%
